100
32
3
18
30
30
27
7
5
9
25
17
23
30
29
24
17
28
15
10
18
5
25
23
7
15
12
28
9
12
19
11
11
22
22
32
31
26
1
27
20
11
5
30
7
17
31
18
22
31
8
8
16
6
10
4
21
3
19
10
25
3
32
20
22
25
26
29
31
21
2
18
24
9
1
18
30
19
2
23
12
25
18
24
9
18
19
21
10
5
28
4
32
22
26
26
8
18
18
24
32
5